letting maxWeight=44
letting values=[13, 3, 23, 26, 11, 17, 26, 18, 6, 23, 5, 11, 25, 27, 19, 20, 18, 4, 25, 25, 18, 24, 10, 27, 11, 10, 2, 7, 20, 15, 6, 1, 15, 6, 11, 2, 7, 3, 14, 11, 16, 15, 9, 17, 24, 21, 18, 24, 10, 16, 6, 19, 22]
letting weights=[18, 20, 3, 10, 1, 4, 19, 5, 7, 14, 3, 15, 20, 10, 1, 7, 18, 12, 2, 18, 1, 16, 7, 3, 21, 10, 12, 8, 18, 10, 20, 14, 8, 16, 12, 12, 14, 1, 2, 11, 16, 2, 14, 7, 14, 14, 4, 3, 2, 1, 15, 14, 13]
